/*********************************************
 * OPL 12.6.1.0 Data
 * Author: Administrator
 * Creation Date: 2018-9-9 at обнГ7:09:16
 *********************************************/
nbItems=9;
limitweight=15;
value=[10,45,30,100,150,90,200,180,300];
weight=[2,1,1,2.5,10,6,5,4,3];
